1138.0 13686.0 3887.0 
1226.0 13198.0 2978.0 
1189.0 13285.0 3216.0 
1229.0 13212.0 2788.0 
1216.0 13214.0 2967.0 
1131.0 13850.0 3726.0 
1138.0 13704.0 3306.0 
1286.0 13196.0 2997.0 
1149.0 13457.0 2971.0 
1255.0 13207.0 2940.0 
1198.0 13295.0 2805.0 
1198.0 13295.0 2805.0 
1138.0 13684.0 4015.0 
1192.0 13242.0 3041.0 
1131.0 13932.0 3642.0 
1161.0 13244.0 3294.0 
1141.0 13537.0 3221.0 
1154.0 13343.0 3663.0 
1249.0 13257.0 2734.0 
1161.0 13319.0 3109.0 
1161.0 13341.0 3061.0 
1192.0 13345.0 2862.0 
1172.0 13338.0 2916.0 
1197.0 13250.0 2814.0 
1160.0 13337.0 3343.0 
1127.0 14040.0 4041.0 
